HUN,8,6,765
0,15,2,11,1,16,3,19,5,5,4,29
2,25,1,2,0,11,4,30,3,27,5,20
2,8,0,26,1,27,5,21,3,30,4,15
1,14,2,1,0,19,4,25,5,13,3,21
2,29,1,13,0,10,4,10,5,24,3,14
1,28,2,15,0,3,4,10,5,30,3,13
2,11,1,25,0,1,4,25,3,4,5,3
1,13,2,1,0,10,5,17,3,25,4,6
